\* ex2_3_p *\
Maximize
OBJ: 4 Bishop + 5 King + 3 Knight + 2 Pawn
Subject To
_C1: 0.375 Bishop + 0.125 King + 0.625 Knight + 0.9375 Pawn <= 750
_C2: 0.625 Bishop + 0.875 King + 0.375 Knight + 0.0625 Pawn <= 250
End
